Gurobi Optimizer version 9.1.2 build v9.1.2rc0 (linux64)
Thread count: 36 physical cores, 72 logical processors, using up to 32 threads
Optimize a model with 12 rows, 57 columns and 590 nonzeros
Model fingerprint: 0xf32eec78
Model has 47 quadratic constraints
Coefficient statistics:
  Matrix range     [2e-05, 3e+00]
  QMatrix range    [1e+00, 1e+00]
  QLMatrix range   [1e+00, 1e+00]
  Objective range  [8e-03, 7e-01]
  Bounds range     [1e+00, 1e+00]
  RHS range        [1e+00, 1e+00]
Presolve removed 9 rows and 0 columns

Continuous model is non-convex -- solving as a MIP.

Presolve removed 9 rows and 0 columns
Presolve time: 0.00s
Presolved: 189 rows, 57 columns, 443 nonzeros
Presolved model has 47 bilinear constraint(s)
Variable types: 57 continuous, 0 integer (0 binary)

Root relaxation: objective -1.743721e+00, 44 iterations, 0.00 seconds

    Nodes    |    Current Node    |     Objective Bounds      |     Work
 Expl Unexpl |  Obj  Depth IntInf | Incumbent    BestBd   Gap | It/Node Time

     0     0   -1.74372    0   38          -   -1.74372      -     -    0s
H    0     0                       0.6147548   -1.74372   384%     -    0s
     0     0   -1.64739    0    1    0.61475   -1.64739   368%     -    0s
H    0     0                      -1.6450460   -1.64739  0.14%     -    0s
     0     0     cutoff    0        -1.64505   -1.64505  0.00%     -    0s

Cutting planes:
  RLT: 25
  BQP: 3

Explored 1 nodes (76 simplex iterations) in 0.01 seconds
Thread count was 32 (of 72 available processors)

Solution count 2: -1.64505 0.614755 
No other solutions better than -1.64505

Optimal solution found (tolerance 1.00e-04)
Best objective -1.645045978473e+00, best bound -1.645045978473e+00, gap 0.0000%

User-callback calls 78, time in user-callback 0.00 sec
Gurobi Optimizer version 9.1.2 build v9.1.2rc0 (linux64)
Thread count: 36 physical cores, 72 logical processors, using up to 32 threads
Optimize a model with 60 rows, 312 columns and 16100 nonzeros
Model fingerprint: 0x040bc966
Model has 262 quadratic constraints
Coefficient statistics:
  Matrix range     [4e-07, 7e+00]
  QMatrix range    [1e+00, 1e+00]
  QLMatrix range   [1e+00, 1e+00]
  Objective range  [5e-03, 2e+00]
  Bounds range     [1e+00, 1e+00]
  RHS range        [1e+00, 1e+00]
Presolve removed 17 rows and 0 columns

Continuous model is non-convex -- solving as a MIP.

Presolve removed 17 rows and 0 columns
Presolve time: 0.01s
Presolved: 1079 rows, 312 columns, 12823 nonzeros
Presolved model has 262 bilinear constraint(s)
Variable types: 312 continuous, 0 integer (0 binary)

Root relaxation: objective -2.847955e+01, 315 iterations, 0.02 seconds

    Nodes    |    Current Node    |     Objective Bounds      |     Work
 Expl Unexpl |  Obj  Depth IntInf | Incumbent    BestBd   Gap | It/Node Time

     0     0  -28.47955    0  147          -  -28.47955      -     -    0s
     0     0  -27.12775    0   80          -  -27.12775      -     -    0s
     0     0  -27.09813    0   75          -  -27.09813      -     -    0s
     0     0  -27.03790    0   83          -  -27.03790      -     -    0s
     0     0  -27.03754    0   83          -  -27.03754      -     -    0s
     0     0  -27.02544    0   83          -  -27.02544      -     -    0s
     0     0  -27.02504    0   83          -  -27.02504      -     -    0s
     0     0  -27.02290    0   83          -  -27.02290      -     -    0s
     0     0  -27.02259    0   74          -  -27.02259      -     -    0s
     0     0  -27.02100    0   74          -  -27.02100      -     -    0s
     0     0  -27.02087    0   74          -  -27.02087      -     -    0s
     0     0  -27.02081    0   74          -  -27.02081      -     -    0s
     0     0  -27.01951    0   74          -  -27.01951      -     -    0s
H    0     0                     -24.3673597  -27.01951  10.9%     -    0s
     0     2  -27.01951    0   74  -24.36736  -27.01951  10.9%     -    0s
* 1760  1534              57     -24.3713257  -25.89319  6.24%  47.4    1s
* 1971  1771             108     -24.4929114  -25.89319  5.72%  44.7    1s
* 2106  1832             112     -24.4929123  -25.81989  5.42%  43.6    1s
* 2235  1867              56     -25.2830366  -25.81989  2.12%  42.8    1s
* 3121  1760              35     -25.2830380  -25.73998  1.81%  43.2    2s
* 3794  1769              46     -25.2837568  -25.72134  1.73%  42.8    2s
* 4703  1843              45     -25.2985906  -25.72134  1.67%  41.9    3s
* 5711  1819              43     -25.2989998  -25.62526  1.29%  40.1    3s
* 5713  1819              42     -25.2991089  -25.62526  1.29%  40.1    3s
* 6004  1829              40     -25.2992526  -25.62526  1.29%  39.6    3s
* 6215  1811              58     -25.3086662  -25.62526  1.25%  39.2    3s
* 7251  1838              61     -25.3112969  -25.46292  0.60%  37.9    4s
* 7254  1838              62     -25.3112973  -25.46292  0.60%  37.8    4s
* 7298  1838              56     -25.3116989  -25.46292  0.60%  37.7    4s
* 7299  1838              56     -25.3117011  -25.46292  0.60%  37.7    4s
* 8789  1776              54     -25.3120578  -25.41048  0.39%  36.0    4s
 10388  1777     cutoff   19       -25.31206  -25.38081  0.27%  34.2    5s
*11616  1874              57     -25.3121804  -25.37183  0.24%  32.9    5s
*11623  1874              58     -25.3121838  -25.37183  0.24%  32.9    5s
*11627  1874              58     -25.3121845  -25.37183  0.24%  32.9    5s
*11634  1874              58     -25.3121901  -25.37183  0.24%  32.8    5s
*11830  1874              64     -25.3122157  -25.37183  0.24%  32.7    5s
*11833  1874              65     -25.3122180  -25.37183  0.24%  32.7    5s
*11836  1874              65     -25.3122180  -25.37183  0.24%  32.7    5s
*13187  1970              55     -25.3124169  -25.36143  0.19%  31.5    5s
*13788  2041              60     -25.3164932  -25.36143  0.18%  31.0    5s
*13789  2041              61     -25.3164939  -25.36143  0.18%  31.0    5s
 32472  1673     cutoff   40       -25.31649  -25.36143  0.18%  30.1   10s
*48506  2202              77     -25.3165014  -25.32667  0.04%  25.0   12s
*49310  2187              71     -25.3165766  -25.32621  0.04%  24.8   12s
*53750  2224              76     -25.3165780  -25.32382  0.03%  23.5   13s
*53751  2224              76     -25.3165782  -25.32382  0.03%  23.5   13s
*53754  2220              75     -25.3165830  -25.32382  0.03%  23.5   13s
*59154  2216              72     -25.3165937  -25.32123  0.02%  22.2   13s
*59993  2116              74     -25.3165966  -25.32108  0.02%  22.0   14s
*62697  1925              76     -25.3166022  -25.32022  0.01%  21.5   14s
 65229  1485     cutoff   53       -25.31660  -25.31946  0.01%  21.0   15s

Explored 68967 nodes (1404614 simplex iterations) in 15.10 seconds
Thread count was 32 (of 72 available processors)

Solution count 10: -25.3166 -25.3166 -25.3166 ... -25.3124

Optimal solution found (tolerance 1.00e-04)
Best objective -2.531660215614e+01, best bound -2.531860112471e+01, gap 0.0079%

User-callback calls 139151, time in user-callback 0.03 sec



objective value: -25.316602156144242
objective bound: -25.318601124706127
x_opt: [1.0, 0.9201035123543597, 0.0, 0.3768141164936307, 0.0, 0.0, 1.0, 0.0, 0.0, 0.0, 1.0, 0.0, 1.0, 1.0, 0.41644061543448424, 1.0, 0.0, 1.0, 0.0, 0.0, 0.0, 0.22698271168626152, 0.0, 0.5301093943172924, 0.0, 0.7063588152368363, 0.0, 1.0, 0.0, 0.0, 1.0, 1.0, 0.0, 0.5412424469067564, 1.0, 0.894641928938086, 0.0, 1.0, 0.0, 1.0, 1.0, 0.0, 0.9664652354800286, 0.10198042981785309, 0.029832918064317513, 0.0, 0.4036381923075361, 0.4104181530795665, 0.21660372079366388, 0.0]
GUROBI solution time: 15.103957891464233




